NAME: Random_45_4
ELLAPSED_TIME_(ms): 200
TOUR_SIZE: 704
TOUR_SECTION
0
44
2
20
33
8
28
23
14
25
7
37
6
13
31
30
27
3
41
18
21
29
24
26
16
39
40
9
36
35
12
19
43
42
10
17
11
32
38
1
5
15
4
22
34
0
EOF
